<number of tasks>
50

<cycle time>
1000

<order strength>
0.196


<task times>
1 469
2 355
3 391
4 729
5 803
6 486
7 639
8 728
9 533
10 361
11 529
12 586
13 532
14 315
15 635
16 421
17 465
18 732
19 377
20 445
21 601
22 436
23 454
24 478
25 597
26 665
27 518
28 397
29 419
30 407
31 483
32 425
33 382
34 487
35 467
36 602
37 546
38 364
39 531
40 385
41 638
42 621
43 675
44 512
45 455
46 562
47 589
48 504
49 455
50 355

<precedence relations>
1,6
2,7
3,5
3,8
3,10
3,11
3,12
3,18
4,9
4,13
5,14
6,18
7,16
8,17
9,15
9,19
9,21
11,20
11,24
11,49
12,20
14,23
15,22
16,23
17,23
18,40
19,24
21,25
21,26
22,27
23,29
24,28
24,47
25,30
27,31
28,32
29,33
30,34
30,35
30,36
31,39
32,37
33,38
34,40
34,41
35,45
37,42
38,43
39,44
39,45
40,47
40,49
40,50
41,46
41,48

<end>
